     Program PWSCF v.7.4 starts on  5Jun2025 at 10:47: 7
        Git branch: develop
        Last git commit: 621a13ae07f0aef1eb4ac4d6dc5b2414247e738f
        Last git commit date: Thu Dec 5 08:24:25 2024 +0000
        Last git commit subject: Merge branch 'wavefunction_module' into 'develop'

     Waiting for input...
     Reading input from standard input

     Current dimensions of program PWSCF are:
     Max number of different atomic species (ntypx) = 10
     Max number of k-points (npk) =  40000
     Max angular momentum in pseudopotentials (lmaxx) =  4
     file O.pbesol-n-kjpaw_psl.0.1.UPF: wavefunction(s)  2P renormalized
     Found identity + (  0.0000  0.0000 -0.5000) symmetry
     This is a supercell, fractional translations are disabled
     Message from routine setup:
     using ibrav=0 with symmetry is DISCOURAGED, use correct ibrav instead

     K-points division:     npool     =      64
     Subspace diagonalization in iterative solution of the eigenvalue problem:
     a serial algorithm will be used

     Message from routine divide_et_impera:
     suboptimal parallelization: some nodes have no k-points

     Using Slab Decomposition

     bravais-lattice index     =            0
     lattice parameter (alat)  =      10.5994  a.u.
     unit-cell volume          =    1688.5382 (a.u.)^3
     number of atoms/cell      =           20
     number of atomic types    =            3
     number of electrons       =       168.00
     number of Kohn-Sham states=          101
     kinetic-energy cutoff     =      50.0000  Ry
     charge density cutoff     =     400.0000  Ry
     scf convergence threshold =      4.0E-09
     mixing beta               =       0.4000
     number of iterations used =            8  plain     mixing
     Exchange-correlation= SLA  PW   PSX  PSC
                           (   1   4  10   8   0   0   0)

     celldm(1)=  10.599398  celldm(2)=   0.000000  celldm(3)=   0.000000
     celldm(4)=   0.000000  celldm(5)=   0.000000  celldm(6)=   0.000000

     crystal axes: (cart. coord. in units of alat)
               a(1) = (   1.000000   0.000000   0.000000 )
               a(2) = (   0.000000   1.002817   0.000000 )
               a(3) = (   0.000000   0.000000   1.413988 )

     reciprocal axes: (cart. coord. in units 2 pi/alat)
               b(1) = (  1.000000  0.000000  0.000000 )
               b(2) = (  0.000000  0.997191  0.000000 )
               b(3) = (  0.000000  0.000000  0.707220 )

     PseudoPot. # 1 for Mo read from file:
     ../pseudo/Mo_ONCV_PBEsol-1.0.upf
     MD5 check sum: 5193ba6a20874d27c2ef80314d1b3445
     Pseudo is Norm-conserving, Zval = 14.0
     Generated using ONCVPSP code by D. R. Hamann
     Using radial grid of 1508 points,  6 beta functions with:
                l(1) =   0
                l(2) =   0
                l(3) =   1
                l(4) =   1
                l(5) =   2
                l(6) =   2

     PseudoPot. # 2 for O  read from file:
     ../pseudo/O.pbesol-n-kjpaw_psl.0.1.UPF
     MD5 check sum: 81d73d1479e654e5638b0319f0d6c2c7
     Pseudo is Projector augmented-wave + core cor, Zval =  6.0
     Generated using "atomic" code by A. Dal Corso  v.6.0 svn rev. 13079
     Shape of augmentation charge: BESSEL
     Using radial grid of 1095 points,  4 beta functions with:
                l(1) =   0
                l(2) =   0
                l(3) =   1
                l(4) =   1
     Q(r) pseudized with 0 coefficients

     PseudoPot. # 3 for Sr read from file:
     ../pseudo/sr_pbesol_v1.uspp.F.UPF
     MD5 check sum: 635bff1625df5273dba4129a01ed8c82
     Pseudo is Ultrasoft + core correction, Zval = 10.0
     Generated by new atomic code, or converted to UPF format
     Using radial grid of  883 points,  6 beta functions with:
                l(1) =   0
                l(2) =   0
                l(3) =   1
                l(4) =   1
                l(5) =   2
                l(6) =   2
     Q(r) pseudized with  6 coefficients,  rinner =    1.400   1.400   1.400
                                                       1.400   1.400

     atomic species   valence    mass     pseudopotential
     Mo               14.00    95.96000     Mo( 1.00)
     O                 6.00    15.99940     O ( 1.00)
     Sr               10.00    87.62000     Sr( 1.00)

      8 Sym. Ops., with inversion, found

                                    s                        frac. trans.

      isym =  1     identity

 cryst.   s( 1) = (     1          0          0      )
                  (     0          1          0      )
                  (     0          0          1      )

 cart.    s( 1) = (  1.0000000  0.0000000  0.0000000 )
                  (  0.0000000  1.0000000  0.0000000 )
                  (  0.0000000  0.0000000  1.0000000 )

      isym =  2     180 deg rotation - cart. axis [0,0,1]

[...]

      isym =  4     180 deg rotation - cart. axis [1,0,0]

[...]

      isym =  5     inversion

[...]

      isym =  6     inv. 180 deg rotation - cart. axis [0,0,1]

[...]

      isym =  8     inv. 180 deg rotation - cart. axis [1,0,0]

 cryst.   s( 8) = (    -1          0          0      )
                  (     0          1          0      )
                  (     0          0          1      )

 cart.    s( 8) = ( -1.0000000  0.0000000  0.0000000 )
                  (  0.0000000  1.0000000  0.0000000 )
                  (  0.0000000  0.0000000  1.0000000 )

   Cartesian axes

     site n.     atom                  positions (alat units)
         1        Sr     tau(   1) = (   0.0000000   0.5014085   0.3534969  )
         2        Sr     tau(   2) = (   0.0000000   0.5014085   1.0604907  )
         3        Sr     tau(   3) = (   0.5000000   0.0000000   1.0604907  )
         4        Sr     tau(   4) = (   0.5000000   0.0000000   0.3534969  )
         5        Mo     tau(   5) = (   0.0000000   0.0000000   0.0000000  )
         6        Mo     tau(   6) = (   0.0000000   0.0000000   0.7069938  )
         7        Mo     tau(   7) = (   0.5000000   0.5014085   0.7069938  )
         8        Mo     tau(   8) = (   0.5000000   0.5014085   0.0000000  )
         9        O      tau(   9) = (   0.2500000   0.7521127   0.0000000  )
        10        O      tau(  10) = (   0.2500000   0.2507042   0.0000000  )
        11        O      tau(  11) = (   0.7500000   0.2507042   0.7069938  )
        12        O      tau(  12) = (   0.7500000   0.7521127   0.7069938  )
        13        O      tau(  13) = (   0.7500000   0.2507042   0.0000000  )
        14        O      tau(  14) = (   0.7500000   0.7521127   0.0000000  )
        15        O      tau(  15) = (   0.2500000   0.7521127   0.7069938  )
        16        O      tau(  16) = (   0.2500000   0.2507042   0.7069938  )
        17        O      tau(  17) = (   0.0000000   0.0000000   0.3534969  )
        18        O      tau(  18) = (   0.0000000   0.0000000   1.0604907  )
        19        O      tau(  19) = (   0.5000000   0.5014085   1.0604907  )
        20        O      tau(  20) = (   0.5000000   0.5014085   0.3534969  )

   Crystallographic axes

     site n.     atom                  positions (cryst. coord.)
         1        Sr     tau(   1) = (  0.0000000  0.5000000  0.2500000  )
         2        Sr     tau(   2) = (  0.0000000  0.5000000  0.7500000  )
         3        Sr     tau(   3) = (  0.5000000  0.0000000  0.7500000  )
         4        Sr     tau(   4) = (  0.5000000  0.0000000  0.2500000  )
         5        Mo     tau(   5) = (  0.0000000  0.0000000  0.0000000  )
         6        Mo     tau(   6) = (  0.0000000  0.0000000  0.5000000  )
         7        Mo     tau(   7) = (  0.5000000  0.5000000  0.5000000  )
         8        Mo     tau(   8) = (  0.5000000  0.5000000  0.0000000  )
         9        O      tau(   9) = (  0.2500000  0.7500000  0.0000000  )
        10        O      tau(  10) = (  0.2500000  0.2500000  0.0000000  )
        11        O      tau(  11) = (  0.7500000  0.2500000  0.5000000  )
        12        O      tau(  12) = (  0.7500000  0.7500000  0.5000000  )
        13        O      tau(  13) = (  0.7500000  0.2500000  0.0000000  )
        14        O      tau(  14) = (  0.7500000  0.7500000  0.0000000  )
        15        O      tau(  15) = (  0.2500000  0.7500000  0.5000000  )
        16        O      tau(  16) = (  0.2500000  0.2500000  0.5000000  )
        17        O      tau(  17) = (  0.0000000  0.0000000  0.2500000  )
        18        O      tau(  18) = (  0.0000000  0.0000000  0.7500000  )
        19        O      tau(  19) = (  0.5000000  0.5000000  0.7500000  )
        20        O      tau(  20) = (  0.5000000  0.5000000  0.2500000  )

     number of k points=    27  Fermi-Dirac smearing, width (Ry)=  0.0015
                       cart. coord. in units 2pi/alat
        k(    1) = (   0.0000000   0.0000000   0.0000000), wk =   0.0160000
        k(    2) = (   0.0000000   0.0000000   0.1414440), wk =   0.0320000
        k(    3) = (   0.0000000   0.0000000   0.2828879), wk =   0.0320000
        k(    4) = (   0.0000000   0.1994382   0.0000000), wk =   0.0320000
        k(    5) = (   0.0000000   0.1994382   0.1414440), wk =   0.0640000
        k(    6) = (   0.0000000   0.1994382   0.2828879), wk =   0.0640000
        k(    7) = (   0.0000000   0.3988764   0.0000000), wk =   0.0320000
        k(    8) = (   0.0000000   0.3988764   0.1414440), wk =   0.0640000
        k(    9) = (   0.0000000   0.3988764   0.2828879), wk =   0.0640000
        k(   10) = (   0.2000000   0.0000000   0.0000000), wk =   0.0320000
        k(   11) = (   0.2000000   0.0000000   0.1414440), wk =   0.0640000
        k(   12) = (   0.2000000   0.0000000   0.2828879), wk =   0.0640000
        k(   13) = (   0.2000000   0.1994382   0.0000000), wk =   0.0640000
        k(   14) = (   0.2000000   0.1994382   0.1414440), wk =   0.1280000
        k(   15) = (   0.2000000   0.1994382   0.2828879), wk =   0.1280000
        k(   16) = (   0.2000000   0.3988764   0.0000000), wk =   0.0640000
        k(   17) = (   0.2000000   0.3988764   0.1414440), wk =   0.1280000
        k(   18) = (   0.2000000   0.3988764   0.2828879), wk =   0.1280000
        k(   19) = (   0.4000000   0.0000000   0.0000000), wk =   0.0320000
        k(   20) = (   0.4000000   0.0000000   0.1414440), wk =   0.0640000
        k(   21) = (   0.4000000   0.0000000   0.2828879), wk =   0.0640000
        k(   22) = (   0.4000000   0.1994382   0.0000000), wk =   0.0640000
        k(   23) = (   0.4000000   0.1994382   0.1414440), wk =   0.1280000
        k(   24) = (   0.4000000   0.1994382   0.2828879), wk =   0.1280000
        k(   25) = (   0.4000000   0.3988764   0.0000000), wk =   0.0640000
        k(   26) = (   0.4000000   0.3988764   0.1414440), wk =   0.1280000
        k(   27) = (   0.4000000   0.3988764   0.2828879), wk =   0.1280000

                       cryst. coord.
        k(    1) = (   0.0000000   0.0000000   0.0000000), wk =   0.0160000
        k(    2) = (   0.0000000   0.0000000   0.2000000), wk =   0.0320000
        k(    3) = (   0.0000000   0.0000000   0.4000000), wk =   0.0320000
        k(    4) = (   0.0000000   0.2000000   0.0000000), wk =   0.0320000
[...]
    -3.6773  -3.6548  -3.6254  -3.6225   5.5000   5.5101   5.7484   5.7628
     6.1297   6.1779   6.4627   6.4898   6.5995   6.6947   7.2896   7.3292
     7.3314   7.3756   7.4585   7.5895   7.6794   7.6900   7.7170   7.8904
     8.6215   8.6502   8.7435   8.7854   8.9738   8.9961   9.0675   9.0909
     9.1529   9.1923   9.2789   9.3332   9.6191   9.6324  10.0639  10.0944
    13.0683  13.2375  13.8253  13.9367  14.3888  14.4047  14.5108  14.6575
    14.6832  14.7464  14.7872  14.9953  16.4674  16.7158  16.9057  17.1838
    17.9422  18.2020  18.2052  18.2489  18.3467

     occupation numbers
     1.0000   1.0000   1.0000   1.0000   1.0000   1.0000   1.0000   1.0000
     1.0000   1.0000   1.0000   1.0000   1.0000   1.0000   1.0000   1.0000
     1.0000   1.0000   1.0000   1.0000   1.0000   1.0000   1.0000   1.0000
     1.0000   1.0000   1.0000   1.0000   1.0000   1.0000   1.0000   1.0000
     1.0000   1.0000   1.0000   1.0000   1.0000   1.0000   1.0000   1.0000
     1.0000   1.0000   1.0000   1.0000   1.0000   1.0000   1.0000   1.0000
     1.0000   1.0000   1.0000   1.0000   1.0000   1.0000   1.0000   1.0000
     1.0000   1.0000   1.0000   1.0000   1.0000   1.0000   1.0000   1.0000
     1.0000   1.0000   1.0000   1.0000   1.0000   1.0000   1.0000   1.0000
     1.0000   1.0000   1.0000   1.0000   1.0000   1.0000   1.0000   1.0000
     1.0000   1.0000   0.8636   0.0263   0.0000   0.0000   0.0000   0.0000
     0.0000   0.0000   0.0000   0.0000   0.0000   0.0000   0.0000   0.0000
     0.0000   0.0000   0.0000   0.0000   0.0000

     the Fermi energy is    13.8629 ev

!    total energy              =   -1324.67830480 Ry
     estimated scf accuracy    <          7.8E-10 Ry
     smearing contrib. (-TS)   =      -0.00121451 Ry
     internal energy E=F+TS    =   -1324.67709029 Ry

     The total energy is F=E-TS. E is the sum of the following terms:
     one-electron contribution =    -306.08661628 Ry
     hartree contribution      =     249.66324490 Ry
     xc contribution           =    -223.35123818 Ry
     ewald contribution        =    -935.64370012 Ry
     one-center paw contrib.   =    -109.25878061 Ry
      -> PAW hartree energy AE =       0.00000000 Ry
      -> PAW hartree energy PS =       0.00000000 Ry
      -> PAW xc energy AE      =       0.00000000 Ry
      -> PAW xc energy PS      =       0.00000000 Ry
      -> total E_H with PAW    =     249.66324490 Ry
      -> total E_XC with PAW   =    -223.35123818 Ry

     convergence has been achieved in  18 iterations

     negative rho (up, down):  2.607E-01 0.000E+00

     Forces acting on atoms (cartesian axes, Ry/au):

     atom    1 type  3   force =     0.00000000    0.00000000    0.00000343
     atom    2 type  3   force =     0.00000000    0.00000000   -0.00000343
     atom    3 type  3   force =     0.00000000    0.00000000   -0.00000343
     atom    4 type  3   force =     0.00000000    0.00000000    0.00000343
     atom    5 type  1   force =     0.00000000    0.00000000    0.00000000
     atom    6 type  1   force =     0.00000000    0.00000000    0.00000000
     atom    7 type  1   force =     0.00000000    0.00000000    0.00000000
     atom    8 type  1   force =     0.00000000    0.00000000    0.00000000
     atom    9 type  2   force =    -0.00000006    0.00000005   -0.00000000
     atom   10 type  2   force =    -0.00000006   -0.00000005    0.00000000
     atom   11 type  2   force =    -0.00000110    0.00000111   -0.00000000
     atom   12 type  2   force =    -0.00000110   -0.00000111   -0.00000000
     atom   13 type  2   force =     0.00000006   -0.00000005   -0.00000000
     atom   14 type  2   force =     0.00000006    0.00000005    0.00000000
     atom   15 type  2   force =     0.00000110   -0.00000111   -0.00000000
     atom   16 type  2   force =     0.00000110    0.00000111   -0.00000000
     atom   17 type  2   force =     0.00000000    0.00000000   -0.00000277
     atom   18 type  2   force =     0.00000000    0.00000000    0.00000277
     atom   19 type  2   force =     0.00000000    0.00000000    0.00000082
     atom   20 type  2   force =     0.00000000    0.00000000   -0.00000082
     The non-local contrib.  to forces
     atom    1 type  3   force =     0.00000000    0.00000000    0.00000360
     atom    2 type  3   force =     0.00000000    0.00000000   -0.00000360
     atom    3 type  3   force =     0.00000000    0.00000000   -0.00000362
     atom    4 type  3   force =     0.00000000    0.00000000    0.00000362
     atom    5 type  1   force =     0.00000000    0.00000000    0.00000000
     atom    6 type  1   force =     0.00000000    0.00000000    0.00000000
     atom    7 type  1   force =     0.00000000    0.00000000    0.00000000
     atom    8 type  1   force =     0.00000000    0.00000000    0.00000000
     atom    9 type  2   force =     0.00000060   -0.00000056    0.00000000
     atom   10 type  2   force =     0.00000060    0.00000056   -0.00000000
     atom   11 type  2   force =    -0.00000061    0.00000065    0.00000000
     atom   12 type  2   force =    -0.00000061   -0.00000065    0.00000000
     atom   13 type  2   force =    -0.00000060    0.00000056   -0.00000000
     atom   14 type  2   force =    -0.00000060   -0.00000056   -0.00000000
     atom   15 type  2   force =     0.00000061   -0.00000065    0.00000000
     atom   16 type  2   force =     0.00000061    0.00000065    0.00000000
     atom   17 type  2   force =     0.00000000    0.00000000   -0.00000199
     atom   18 type  2   force =     0.00000000    0.00000000    0.00000199
     atom   19 type  2   force =     0.00000000    0.00000000    0.00000114
     atom   20 type  2   force =     0.00000000    0.00000000   -0.00000114
     The ionic contribution  to forces
     atom    1 type  3   force =    -0.00000000    0.00000000   -0.00000000
     atom    2 type  3   force =    -0.00000000    0.00000000    0.00000000
     atom    3 type  3   force =     0.00000000   -0.00000000    0.00000000
     atom    4 type  3   force =     0.00000000   -0.00000000   -0.00000000
     atom    5 type  1   force =    -0.00000000   -0.00000000   -0.00000000
     atom    6 type  1   force =    -0.00000000   -0.00000000    0.00000000
     atom    7 type  1   force =    -0.00000000    0.00000000   -0.00000000
     atom    8 type  1   force =    -0.00000000    0.00000000   -0.00000000
     atom    9 type  2   force =    -0.00000000    0.00000000   -0.00000000
     atom   10 type  2   force =    -0.00000000   -0.00000000   -0.00000000
     atom   11 type  2   force =     0.00000000   -0.00000000    0.00000000
     atom   12 type  2   force =     0.00000000    0.00000000    0.00000000
     atom   13 type  2   force =     0.00000000    0.00000000   -0.00000000
     atom   14 type  2   force =     0.00000000    0.00000000   -0.00000000
     atom   15 type  2   force =    -0.00000000    0.00000000    0.00000000
     atom   16 type  2   force =    -0.00000000   -0.00000000    0.00000000
     atom   17 type  2   force =    -0.00000000   -0.00000000   -0.00000000
     atom   18 type  2   force =    -0.00000000   -0.00000000   -0.00000000
     atom   19 type  2   force =     0.00000000    0.00000000   -0.00000000
     atom   20 type  2   force =     0.00000000    0.00000000   -0.00000000
     The local contribution  to forces
     atom    1 type  3   force =     0.00000000    0.00000000    0.00002229
     atom    2 type  3   force =     0.00000000    0.00000000   -0.00002229
     atom    3 type  3   force =     0.00000000    0.00000000   -0.00002233
     atom    4 type  3   force =     0.00000000    0.00000000    0.00002233
     atom    5 type  1   force =     0.00000000    0.00000000   -0.00000000
     atom    6 type  1   force =     0.00000000    0.00000000    0.00000000
     atom    7 type  1   force =     0.00000000    0.00000000    0.00000000
     atom    8 type  1   force =     0.00000000    0.00000000   -0.00000000
     atom    9 type  2   force =     0.00000477   -0.00000488   -0.00000000
     atom   10 type  2   force =     0.00000477    0.00000488   -0.00000000
     atom   11 type  2   force =     0.00000832   -0.00000840    0.00000000
     atom   12 type  2   force =     0.00000832    0.00000840    0.00000000
     atom   13 type  2   force =    -0.00000477    0.00000488   -0.00000000
     atom   14 type  2   force =    -0.00000477   -0.00000488   -0.00000000
     atom   15 type  2   force =    -0.00000832    0.00000840    0.00000000
     atom   16 type  2   force =    -0.00000832   -0.00000840    0.00000000
     atom   17 type  2   force =    -0.00000000    0.00000000    0.00003245
     atom   18 type  2   force =    -0.00000000    0.00000000   -0.00003245
     atom   19 type  2   force =     0.00000000    0.00000000   -0.00001264
     atom   20 type  2   force =     0.00000000    0.00000000    0.00001264
     The core correction contribution to forces
     atom    1 type  3   force =     0.00000000   -0.00000000   -0.00000013
     atom    2 type  3   force =     0.00000000   -0.00000000    0.00000013
     atom    3 type  3   force =     0.00000000    0.00000000    0.00000013
     atom    4 type  3   force =    -0.00000000    0.00000000   -0.00000013
     atom    5 type  1   force =     0.00000000    0.00000000    0.00000000
     atom    6 type  1   force =     0.00000000    0.00000000    0.00000000
     atom    7 type  1   force =     0.00000000    0.00000000    0.00000000
     atom    8 type  1   force =     0.00000000    0.00000000    0.00000000
     atom    9 type  2   force =    -0.00000001    0.00000001    0.00000000
     atom   10 type  2   force =    -0.00000001   -0.00000001    0.00000000
     atom   11 type  2   force =    -0.00000000    0.00000000    0.00000000
     atom   12 type  2   force =    -0.00000000   -0.00000000    0.00000000
     atom   13 type  2   force =     0.00000001   -0.00000001    0.00000000
     atom   14 type  2   force =     0.00000001    0.00000001    0.00000000
     atom   15 type  2   force =     0.00000000   -0.00000000    0.00000000
     atom   16 type  2   force =     0.00000000    0.00000000    0.00000000
     atom   17 type  2   force =     0.00000000    0.00000000   -0.00000000
     atom   18 type  2   force =    -0.00000000   -0.00000000    0.00000000
     atom   19 type  2   force =     0.00000000    0.00000000    0.00000000
     atom   20 type  2   force =     0.00000000   -0.00000000   -0.00000000
     The Hubbard contrib.    to forces
     atom    1 type  3   force =     0.00000000    0.00000000    0.00000000
     atom    2 type  3   force =     0.00000000    0.00000000    0.00000000
     atom    3 type  3   force =     0.00000000    0.00000000    0.00000000
     atom    4 type  3   force =     0.00000000    0.00000000    0.00000000
     atom    5 type  1   force =     0.00000000    0.00000000    0.00000000
     atom    6 type  1   force =     0.00000000    0.00000000    0.00000000
     atom    7 type  1   force =     0.00000000    0.00000000    0.00000000
     atom    8 type  1   force =     0.00000000    0.00000000    0.00000000
     atom    9 type  2   force =     0.00000000    0.00000000    0.00000000
     atom   10 type  2   force =     0.00000000    0.00000000    0.00000000
     atom   11 type  2   force =     0.00000000    0.00000000    0.00000000
     atom   12 type  2   force =     0.00000000    0.00000000    0.00000000
     atom   13 type  2   force =     0.00000000    0.00000000    0.00000000
     atom   14 type  2   force =     0.00000000    0.00000000    0.00000000
     atom   15 type  2   force =     0.00000000    0.00000000    0.00000000
     atom   16 type  2   force =     0.00000000    0.00000000    0.00000000
     atom   17 type  2   force =     0.00000000    0.00000000    0.00000000
     atom   18 type  2   force =     0.00000000    0.00000000    0.00000000
     atom   19 type  2   force =     0.00000000    0.00000000    0.00000000
     atom   20 type  2   force =     0.00000000    0.00000000    0.00000000
     The SCF correction term to forces
     atom    1 type  3   force =    -0.00000000   -0.00000000   -0.00002233
     atom    2 type  3   force =    -0.00000000   -0.00000000    0.00002233
     atom    3 type  3   force =    -0.00000000    0.00000000    0.00002239
     atom    4 type  3   force =    -0.00000000    0.00000000   -0.00002239
     atom    5 type  1   force =     0.00000000   -0.00000000   -0.00000000
     atom    6 type  1   force =     0.00000000   -0.00000000   -0.00000000
     atom    7 type  1   force =    -0.00000000   -0.00000000   -0.00000000
     atom    8 type  1   force =    -0.00000000   -0.00000000   -0.00000000
     atom    9 type  2   force =    -0.00000541    0.00000548    0.00000000
     atom   10 type  2   force =    -0.00000541   -0.00000548   -0.00000000
     atom   11 type  2   force =    -0.00000880    0.00000885   -0.00000000
     atom   12 type  2   force =    -0.00000880   -0.00000885    0.00000000
     atom   13 type  2   force =     0.00000541   -0.00000548   -0.00000000
     atom   14 type  2   force =     0.00000541    0.00000548    0.00000000
     atom   15 type  2   force =     0.00000880   -0.00000885   -0.00000000
     atom   16 type  2   force =     0.00000880    0.00000885   -0.00000000
     atom   17 type  2   force =     0.00000000   -0.00000000   -0.00003323
     atom   18 type  2   force =     0.00000000   -0.00000000    0.00003323
     atom   19 type  2   force =     0.00000000    0.00000000    0.00001231
     atom   20 type  2   force =     0.00000000    0.00000000   -0.00001231

     Total force =     0.000009     Total SCF correction =     0.000073
     SCF correction compared to forces is large: reduce conv_thr to get better values

     Computing stress (Cartesian axis) and pressure

     negative rho (up, down):  2.607E-01 0.000E+00
          total   stress  (Ry/bohr**3)                   (kbar)     P=      -24.77
  -0.00016190   0.00000000   0.00000000          -23.82        0.00        0.00
   0.00000000  -0.00018553   0.00000000            0.00      -27.29        0.00
   0.00000000   0.00000000  -0.00015774            0.00        0.00      -23.20

     kinetic stress (kbar)  26372.17      0.00      0.00
                                0.00  26362.56      0.00
                                0.00      0.00  26354.21

     local   stress (kbar) -11429.53     -0.00     -0.00
                               -0.00 -11441.44      0.00
                               -0.00      0.00 -11550.32

     nonloc. stress (kbar)  10509.81      0.00      0.00
                                0.00  10510.47      0.00
                                0.00      0.00  10509.81

     hartree stress (kbar)   7234.02     -0.00     -0.00
                               -0.00   7241.59     -0.00
                               -0.00     -0.00   7275.00

     exc-cor stress (kbar)  -1575.79      0.00     -0.00
                                0.00  -1575.81      0.00
                               -0.00      0.00  -1575.74

     corecor stress (kbar)  -3927.42     -0.00      0.00
                               -0.00  -3927.42     -0.00
                                0.00     -0.00  -3927.41

     ewald   stress (kbar) -27207.08     -0.00     -0.00
                               -0.00 -27197.25     -0.00
                               -0.00     -0.00 -27108.75

     hubbard stress (kbar)      0.00      0.00      0.00
                                0.00      0.00      0.00
                                0.00      0.00      0.00

     DFT-D   stress (kbar)      0.00      0.00      0.00
                                0.00      0.00      0.00
                                0.00      0.00      0.00

     XDM     stress (kbar)      0.00      0.00      0.00
                                0.00      0.00      0.00
                                0.00      0.00      0.00

     dft-nl  stress (kbar)      0.00      0.00      0.00
                                0.00      0.00      0.00
                                0.00      0.00      0.00

     TS-vdW  stress (kbar)      0.00      0.00      0.00
                                0.00      0.00      0.00
                                0.00      0.00      0.00

     MDB     stress (kbar)      0.00      0.00      0.00
                                0.00      0.00      0.00
                                0.00      0.00      0.00

     3D-RISM stress (kbar)      0.00      0.00      0.00
                                0.00      0.00      0.00
                                0.00      0.00      0.00

     Writing all to output data dir ./out/smo.save/ :
     XML data file, charge density, pseudopotentials, collected wavefunctions

     General routines

     Parallel routines

     PAW routines

   This run was terminated on:  10:49:12   5Jun2025

   JOB DONE.